c Generated map
c Size: 9 * 9, weights in range: 1 to 10, walls: True, with ratio 0.1
c dim 4 of 8
c
p sp 81 117
c graph contains 81 nodes and 117 arcs
c
a 1 10 4
a 10 1 4
a 1 2 2
a 2 1 2
a 2 11 2
a 11 2 2
a 2 3 5
a 3 2 5
a 3 12 3
a 12 3 3
a 3 4 2
a 4 3 2
a 4 13 1
a 13 4 1
a 4 5 1
a 5 4 1
a 5 14 2
a 14 5 2
a 5 6 2
a 6 5 2
a 6 15 5
a 15 6 5
a 6 7 4
a 7 6 4
a 7 16 6
a 16 7 6
a 7 8 7
a 8 7 7
a 8 17 2
a 17 8 2
a 8 9 1
a 9 8 1
a 10 11 2
a 11 10 2
a 11 20 7
a 20 11 7
a 11 12 8
a 12 11 8
a 12 13 6
a 13 12 6
a 13 22 9
a 22 13 9
a 13 14 7
a 14 13 7
a 14 23 9
a 23 14 9
a 14 15 2
a 15 14 2
a 15 16 10
a 16 15 10
a 16 25 6
a 25 16 6
a 16 17 10
a 17 16 10
a 17 26 2
a 26 17 2
a 20 29 5
a 29 20 5
a 22 31 2
a 31 22 2
a 22 23 5
a 23 22 5
a 23 32 2
a 32 23 2
a 25 34 4
a 34 25 4
a 25 26 3
a 26 25 3
a 26 35 8
a 35 26 8
a 26 27 4
a 27 26 4
a 27 36 4
a 36 27 4
a 29 38 5
a 38 29 5
a 29 30 7
a 30 29 7
a 30 39 8
a 39 30 8
a 30 31 2
a 31 30 2
a 31 32 10
a 32 31 10
a 32 41 4
a 41 32 4
a 32 33 2
a 33 32 2
a 33 42 8
a 42 33 8
a 33 34 6
a 34 33 6
a 34 43 10
a 43 34 10
a 34 35 3
a 35 34 3
a 35 44 9
a 44 35 9
a 35 36 7
a 36 35 7
a 36 45 5
a 45 36 5
a 37 46 10
a 46 37 10
a 37 38 10
a 38 37 10
a 38 47 3
a 47 38 3
a 38 39 8
a 39 38 8
a 39 48 5
a 48 39 5
a 41 50 7
a 50 41 7
a 41 42 8
a 42 41 8
a 42 51 10
a 51 42 10
a 42 43 2
a 43 42 2
a 43 52 5
a 52 43 5
a 43 44 8
a 44 43 8
a 44 53 9
a 53 44 9
a 44 45 3
a 45 44 3
a 45 54 6
a 54 45 6
a 46 55 2
a 55 46 2
a 46 47 7
a 47 46 7
a 47 56 9
a 56 47 9
a 47 48 1
a 48 47 1
a 48 57 1
a 57 48 1
a 48 49 10
a 49 48 10
a 49 58 5
a 58 49 5
a 49 50 2
a 50 49 2
a 50 59 4
a 59 50 4
a 50 51 2
a 51 50 2
a 51 60 1
a 60 51 1
a 51 52 2
a 52 51 2
a 52 61 4
a 61 52 4
a 52 53 8
a 53 52 8
a 53 62 10
a 62 53 10
a 53 54 4
a 54 53 4
a 54 63 10
a 63 54 10
a 55 64 7
a 64 55 7
a 55 56 6
a 56 55 6
a 56 65 2
a 65 56 2
a 56 57 3
a 57 56 3
a 57 66 3
a 66 57 3
a 57 58 5
a 58 57 5
a 58 67 6
a 67 58 6
a 58 59 4
a 59 58 4
a 59 60 7
a 60 59 7
a 60 69 3
a 69 60 3
a 60 61 6
a 61 60 6
a 61 70 1
a 70 61 1
a 61 62 5
a 62 61 5
a 62 71 9
a 71 62 9
a 62 63 5
a 63 62 5
a 63 72 3
a 72 63 3
a 64 73 9
a 73 64 9
a 64 65 10
a 65 64 10
a 65 74 10
a 74 65 10
a 65 66 7
a 66 65 7
a 66 75 7
a 75 66 7
a 66 67 1
a 67 66 1
a 67 76 5
a 76 67 5
a 69 70 1
a 70 69 1
a 70 79 9
a 79 70 9
a 70 71 5
a 71 70 5
a 71 80 6
a 80 71 6
a 71 72 3
a 72 71 3
a 72 81 10
a 81 72 10
a 73 74 5
a 74 73 5
a 74 75 10
a 75 74 10
a 75 76 10
a 76 75 10
a 76 77 2
a 77 76 2
a 79 80 9
a 80 79 9
a 80 81 7
a 81 80 7
